problem_generation/data/GISP/train/er_n=68_m=1388_p=0.60_SET2_setparam=100.00_alpha=0.50_943.lp
maximize
OBJ:100x0 + 100x1 + 100x2 + 100x3 + 100x4 + 100x5 + 100x6 + 100x7 + 100x8 + 100x9 + 100x10 + 100x11 + 100x12 + 100x13 + 100x14 + 100x15 + 100x16 + 100x17 + 100x18 + 100x19 + 100x20 + 100x21 + 100x22 + 100x23 + 100x24 + 100x25 + 100x26 + 100x27 + 100x28 + 100x29 + 100x30 + 100x31 + 100x32 + 100x33 + 100x34 + 100x35 + 100x36 + 100x37 + 100x38 + 100x39 + 100x40 + 100x41 + 100x42 + 100x43 + 100x44 + 100x45 + 100x46 + 100x47 + 100x48 + 100x49 + 100x50 + 100x51 + 100x52 + 100x53 + 100x54 + 100x55 + 100x56 + 100x57 + 100x58 + 100x59 + 100x60 + 100x61 + 100x62 + 100x63 + 100x64 + 100x65 + 100x66 + 100x67 - y7_26 - y36_62 - y47_62 - y28_58 - y18_35 - y18_44 - y0_23 - y6_57 - y29_59 - y2_32 - y25_43 - y3_6 - y33_56 - y25_52 - y3_24 - y14_24 - y22_37 - y43_60 - y3_33 - y3_42 - y14_51 - y47_48 - y17_44 - y47_57 - y36_66 - y5_60 - y6_34 - y21_41 - y21_59 - y10_31 - y2_27 - y10_40 - y25_47 - y3_19 - y43_55 - y14_28 - y35_60 - y1_67 - y47_52 - y28_48 - y59_63 - y5_55 - y28_57 - y5_64 - y6_29 - y17_66 - y28_66 - y21_27 - y58_67 - y6_38 - y21_36 - y6_47 - y29_49 - y40_49 - y21_45 - y6_56 - y40_58 - y21_54 - y39_62 - y25_42 - y32_41 - y3_14 - y51_63 - y32_59 - y13_55 - y14_32 - y16_51 - y1_62 - y35_64 - y36_38 - y17_34 - y47_65 - y5_59 - y21_22 - y50_58 - y9_66 - y40_44 - y42_63 - y2_8 - y39_57 - y20_53 - y12_58 - y12_67 - y13_32 - y23_67 - y3_9 - y4_63 - y32_45 - y43_45 - y32_54 - y43_54 - y13_59 - y16_55 - y17_20 - y1_66 - y28_29 - y9_25 - y36_51 - y47_51 - y17_47 - y6_10 - y28_47 - y6_19 - y9_52 - y29_30 - y58_66 - y21_26 - y27_60 - y21_35 - y6_46 - y8_65 - y19_65 - y30_65 - y39_52 - y62_63 - y2_21 - y20_57 - y54_59 - y31_66 - y4_58 - y24_36 - y4_67 - y1_43 - y13_45 - y43_58 - y16_41 - y13_54 - y24_54 - y16_50 - y16_59 - y5_22 - y5_31 - y6_23 - y50_57 - y8_60 - y0_56 - y20_43 - y31_43 - y39_56 - y20_52 - y39_65 - y4_44 - y16_18 - y13_31 - y4_62 - y16_27 - y24_40 - y35_49 - y16_45 - y5_17 - y49_51 - y9_24 - y49_60 - y9_33 - y27_41 - y19_46 - y50_61 - y8_55 - y42_57 - y0_51 - y42_66 - y20_29 - y31_38 - y12_34 - y2_11 - y20_47 - y12_43 - y23_52 - y13_17 - y4_48 - y23_61 - y53_62 - y16_22 - y34_58 - y13_35 - y4_66 - y45_67 - y56_67 - y1_42 - y16_40 - y16_49 - y46_50 - y5_21 - y38_55 - y49_55 - y5_30 - y15_62 - y7_58 - y27_36 - y7_67 - y18_67 - y27_45 - y27_54 - y11_37 - y8_50 - y27_63 - y11_46 - y20_24 - y23_29 - y20_42 - y4_34 - y1_19 - y4_52 - y24_30 - y53_66 - y45_62 - y5_16 - y46_54 - y65_67 - y9_14 - y38_50 - y46_63 - y7_44 - y15_57 - y26_57 - y15_66 - y26_66 - y27_31 - y8_36 - y30_36 - y11_41 - y19_54 - y19_63 - y31_37 - y12_33 - y23_33 - y44_65 - y23_42 - y1_5 - y4_38 - y1_14 - y1_32 - y22_64 - y7_39 - y49_54 - y7_48 - y8_13 - y38_63 - y18_57 - y11_18 - y8_31 - y19_31 - y27_44 - y0_27 - y30_31 - y30_40 - y30_49 - y30_58 - y11_54 - y41_55 - y33_51 - y52_64 - y33_60 - y12_37 - y23_37 - y10_67 - y25_65 - y34_43 - y22_50 - y45_52 - y22_59 - y34_61 - y56_61 - y7_25 - y18_25 - y7_34 - y18_34 - y0_13 - y8_26 - y27_39 - y19_35 - y30_35 - y0_31 - y8_44 - y0_40 - y11_40 - y11_49 - y12_14 - y60_63 - y33_46 - y44_46 - y52_59 - y44_55 - y33_64 - y44_64 - y22_54 - y3_50 - y14_50 - y37_52 - y56_65 - y15_33 - y15_42 - y40_53 - y0_26 - y29_62 - y63_64 - y21_58 - y4_5 - y60_67 - y4_14 - y10_48 - y33_50 - y52_63 - y10_57 - y25_55 - y10_66 - y22_31 - y3_27 - y14_27 - y34_42 - y14_36 - y37_38 - y14_45 - y3_54 - y14_54 - y47_60 - y15_37 - y18_42 - y48_52 - y19_25 - y29_57 - y21_53 - y29_66 - y40_66 - y10_34 - y25_32 - y4_9 - y44_45 - y41_58 - y2_39 - y25_41 - y44_54 - y44_63 - y22_26 - y2_57 - y22_35 - y32_67 - y43_67 - y22_44 - y22_53 - y3_49 - y7_10 - y36_46 - y47_55 - y28_51 - y18_28 - y47_64 - y28_60 - y8_11 - y0_7 - y6_41 - y48_56 - y40_52 - y21_57 - y41_44 - y2_43 - y25_45 - y51_57 - y2_52 - y14_17 - y25_54 - y22_30 - y32_53 - y3_26 - y22_39 - y3_35 - y24_67 - y35_67 - y36_41 - y7_14 - y28_46 - y9_51 - y21_25 - y21_34 - y40_47 - y21_43 - y29_56 - y54_58 - y10_33 - y33_35 - y2_29 - y33_44 - y25_40 - y10_51 - y51_52 - y32_48 - y22_25 - y13_53 - y24_53 - y1_60 - y24_62 - y55_58 - y36_54 - y55_67 - y28_50 - y36_63 - y28_59 - y9_55 - y29_33 - y61_65 - y29_42 - y21_38 - y6_49 - y29_51 - y21_47 - y6_58 - y2_6 - y39_55 - y2_33 - y25_35 - y32_34 - y3_7 - y3_16 - y32_61 - y1_55 - y16_53 - y17_18 - y1_64 - y13_66 - y17_27 - y5_34 - y17_36 - y47_49 - y9_32 - y28_45 - y36_58 - y9_41 - y17_54 - y6_17 - y9_50 - y28_63 - y6_26 - y58_64 - y50_60 - y42_65 - y21_42 - y39_50 - y20_46 - y13_25 - y2_37 - y4_56 - y32_38 - y13_34 - y43_47 - y35_61 - y5_20 - y16_66 - y17_31 - y46_67 - y36_44 - y9_27 - y5_38 - y17_40 - y5_56 - y6_21 - y9_54 - y42_51 - y6_39 - y2_5 - y20_41 - y62_65 - y20_59 - y4_42 - y54_61 - y12_55 - y23_55 - y4_51 - y23_64 - y32_42 - y1_36 - y32_51 - y43_51 - y16_43 - y35_56 - y16_52 - y16_61 - y5_24 - y17_26 - y46_62 - y5_33 - y38_67 - y49_67 - y5_42 - y28_44 - y27_48 - y6_25 - y50_59 - y19_53 - y27_66 - y31_36 - y2_9 - y2_18 - y4_37 - y20_54 - y54_56 - y20_63 - y4_46 - y12_59 - y53_60 - y4_55 - y32_37 - y24_33 - y16_29 - y34_65 - y13_42 - y5_19 - y9_17 - y49_53 - y5_28 - y57_66 - y49_62 - y5_37 - y9_35 - y7_65 - y8_39 - y27_52 - y42_50 - y50_63 - y0_44 - y61_63 - y11_53 - y12_18 - y11_62 - y12_27 - y39_44 - y20_40 - y4_23 - y31_40 - y4_32 - y23_45 - y20_58 - y12_54 - y1_17 - y13_19 - y23_54 - y53_64 - y16_24 - y45_60 - y16_42 - y15_46 - y9_21 - y26_55 - y5_32 - y26_64 - y27_29 - y38_66 - y18_60 - y8_34 - y30_34 - y0_30 - y0_39 - y27_65 - y11_48 - y20_26 - y11_57 - y31_35 - y23_31 - y23_40 - y1_3 - y4_36 - y23_49 - y45_55 - y22_62 - y3_58 - y14_58 - y5_9 - y46_47 - y5_18 - y46_56 - y15_50 - y49_52 - y57_65 - y15_59 - y38_61 - y7_55 - y19_20 - y11_25 - y8_38 - y8_47 - y0_43 - y52_53 - y20_30 - y4_13 - y60_66 - y41_62 - y52_62 - y4_31 - y25_63 - y4_40 - y53_54 - y22_48 - y45_50 - y1_25 - y22_57 - y56_59 - y14_53 - y22_66 - y3_62 - y15_27 - y37_64 - y15_36 - y7_41 - y38_56 - y49_56 - y0_11 - y48_60 - y27_37 - y0_20 - y8_33 - y0_29 - y11_29 - y0_38 - y60_61 - y4_8 - y41_66 - y4_26 - y33_62 - y4_35 - y22_34 - y1_11 - y2_65 - y22_43 - y34_45 - y1_20 - y3_39 - y34_54 - y3_48 - y14_48 - y22_61 - y34_63 - y56_63 - y3_57 - y15_22 - y37_59 - y15_31 - y26_31 - y18_27 - y59_65 - y15_49 - y18_45 - y18_54 - y0_15 - y8_28 - y11_24 - y30_37 - y11_33 - y41_43 - y33_39 - y12_16 - y25_53 - y44_66 - y34_40 - y22_47 - y45_58 - y3_52 - y15_17 - y7_13 - y7_22 - y59_60 - y15_35 - y15_44 - y26_44 - y18_40 - y0_1 - y7_49 - y8_14 - y29_46 - y40_46 - y8_23 - y19_23 - y48_59 - y6_53 - y29_64 - y25_39 - y4_16 - y10_50 - y33_52 - y22_33 - y34_35 - y2_64 - y14_29 - y25_66 - y37_49
 Subject to
C1: x0+x1-y0_1 <=1 
C2: x0+x2 <=1 
C3: x0+x3 <=1 
C4: x0+x5 <=1 
C5: x0+x6 <=1 
C6: x0+x7-y0_7 <=1 
C7: x0+x9 <=1 
C8: x0+x10 <=1 
C9: x0+x11-y0_11 <=1 
C10: x0+x13-y0_13 <=1 
C11: x0+x14 <=1 
C12: x0+x15-y0_15 <=1 
C13: x0+x20-y0_20 <=1 
C14: x0+x21 <=1 
C15: x0+x23-y0_23 <=1 
C16: x0+x24 <=1 
C17: x0+x26-y0_26 <=1 
C18: x0+x27-y0_27 <=1 
C19: x0+x28 <=1 
C20: x0+x29-y0_29 <=1 
C21: x0+x30-y0_30 <=1 
C22: x0+x31-y0_31 <=1 
C23: x0+x32 <=1 
C24: x0+x33 <=1 
C25: x0+x35 <=1 
C26: x0+x36 <=1 
C27: x0+x37 <=1 
C28: x0+x38-y0_38 <=1 
C29: x0+x39-y0_39 <=1 
C30: x0+x40-y0_40 <=1 
C31: x0+x42 <=1 
C32: x0+x43-y0_43 <=1 
C33: x0+x44-y0_44 <=1 
C34: x0+x45 <=1 
C35: x0+x46 <=1 
C36: x0+x50 <=1 
C37: x0+x51-y0_51 <=1 
C38: x0+x54 <=1 
C39: x0+x56-y0_56 <=1 
C40: x0+x57 <=1 
C41: x0+x59 <=1 
C42: x0+x60 <=1 
C43: x0+x62 <=1 
C44: x0+x66 <=1 
C45: x1+x3-y1_3 <=1 
C46: x1+x4 <=1 
C47: x1+x5-y1_5 <=1 
C48: x1+x8 <=1 
C49: x1+x10 <=1 
C50: x1+x11-y1_11 <=1 
C51: x1+x12 <=1 
C52: x1+x13 <=1 
C53: x1+x14-y1_14 <=1 
C54: x1+x16 <=1 
C55: x1+x17-y1_17 <=1 
C56: x1+x19-y1_19 <=1 
C57: x1+x20-y1_20 <=1 
C58: x1+x22 <=1 
C59: x1+x23 <=1 
C60: x1+x25-y1_25 <=1 
C61: x1+x26 <=1 
C62: x1+x28 <=1 
C63: x1+x29 <=1 
C64: x1+x32-y1_32 <=1 
C65: x1+x33 <=1 
C66: x1+x34 <=1 
C67: x1+x35 <=1 
C68: x1+x36-y1_36 <=1 
C69: x1+x37 <=1 
C70: x1+x40 <=1 
C71: x1+x41 <=1 
C72: x1+x42-y1_42 <=1 
C73: x1+x43-y1_43 <=1 
C74: x1+x49 <=1 
C75: x1+x51 <=1 
C76: x1+x54 <=1 
C77: x1+x55-y1_55 <=1 
C78: x1+x56 <=1 
C79: x1+x58 <=1 
C80: x1+x60-y1_60 <=1 
C81: x1+x61 <=1 
C82: x1+x62-y1_62 <=1 
C83: x1+x63 <=1 
C84: x1+x64-y1_64 <=1 
C85: x1+x65 <=1 
C86: x1+x66-y1_66 <=1 
C87: x1+x67-y1_67 <=1 
C88: x2+x3 <=1 
C89: x2+x4 <=1 
C90: x2+x5-y2_5 <=1 
C91: x2+x6-y2_6 <=1 
C92: x2+x7 <=1 
C93: x2+x8-y2_8 <=1 
C94: x2+x9-y2_9 <=1 
C95: x2+x10 <=1 
C96: x2+x11-y2_11 <=1 
C97: x2+x15 <=1 
C98: x2+x17 <=1 
C99: x2+x18-y2_18 <=1 
C100: x2+x20 <=1 
C101: x2+x21-y2_21 <=1 
C102: x2+x23 <=1 
C103: x2+x24 <=1 
C104: x2+x25 <=1 
C105: x2+x27-y2_27 <=1 
C106: x2+x29-y2_29 <=1 
C107: x2+x30 <=1 
C108: x2+x32-y2_32 <=1 
C109: x2+x33-y2_33 <=1 
C110: x2+x36 <=1 
C111: x2+x37-y2_37 <=1 
C112: x2+x38 <=1 
C113: x2+x39-y2_39 <=1 
C114: x2+x41 <=1 
C115: x2+x42 <=1 
C116: x2+x43-y2_43 <=1 
C117: x2+x49 <=1 
C118: x2+x50 <=1 
C119: x2+x52-y2_52 <=1 
C120: x2+x56 <=1 
C121: x2+x57-y2_57 <=1 
C122: x2+x62 <=1 
C123: x2+x63 <=1 
C124: x2+x64-y2_64 <=1 
C125: x2+x65-y2_65 <=1 
C126: x2+x67 <=1 
C127: x3+x5 <=1 
C128: x3+x6-y3_6 <=1 
C129: x3+x7-y3_7 <=1 
C130: x3+x9-y3_9 <=1 
C131: x3+x11 <=1 
C132: x3+x13 <=1 
C133: x3+x14-y3_14 <=1 
C134: x3+x16-y3_16 <=1 
C135: x3+x17 <=1 
C136: x3+x19-y3_19 <=1 
C137: x3+x21 <=1 
C138: x3+x22 <=1 
C139: x3+x24-y3_24 <=1 
C140: x3+x26-y3_26 <=1 
C141: x3+x27-y3_27 <=1 
C142: x3+x28 <=1 
C143: x3+x30 <=1 
C144: x3+x31 <=1 
C145: x3+x32 <=1 
C146: x3+x33-y3_33 <=1 
C147: x3+x34 <=1 
C148: x3+x35-y3_35 <=1 
C149: x3+x36 <=1 
C150: x3+x39-y3_39 <=1 
C151: x3+x40 <=1 
C152: x3+x42-y3_42 <=1 
C153: x3+x43 <=1 
C154: x3+x45 <=1 
C155: x3+x48-y3_48 <=1 
C156: x3+x49-y3_49 <=1 
C157: x3+x50-y3_50 <=1 
C158: x3+x52-y3_52 <=1 
C159: x3+x54-y3_54 <=1 
C160: x3+x56 <=1 
C161: x3+x57-y3_57 <=1 
C162: x3+x58-y3_58 <=1 
C163: x3+x60 <=1 
C164: x3+x62-y3_62 <=1 
C165: x3+x63 <=1 
C166: x3+x65 <=1 
C167: x3+x66 <=1 
C168: x4+x5-y4_5 <=1 
C169: x4+x6 <=1 
C170: x4+x8-y4_8 <=1 
C171: x4+x9-y4_9 <=1 
C172: x4+x10 <=1 
C173: x4+x12 <=1 
C174: x4+x13-y4_13 <=1 
C175: x4+x14-y4_14 <=1 
C176: x4+x15 <=1 
C177: x4+x16-y4_16 <=1 
C178: x4+x17 <=1 
C179: x4+x18 <=1 
C180: x4+x19 <=1 
C181: x4+x20 <=1 
C182: x4+x21 <=1 
C183: x4+x22 <=1 
C184: x4+x23-y4_23 <=1 
C185: x4+x26-y4_26 <=1 
C186: x4+x31-y4_31 <=1 
C187: x4+x32-y4_32 <=1 
C188: x4+x34-y4_34 <=1 
C189: x4+x35-y4_35 <=1 
C190: x4+x36-y4_36 <=1 
C191: x4+x37-y4_37 <=1 
C192: x4+x38-y4_38 <=1 
C193: x4+x40-y4_40 <=1 
C194: x4+x42-y4_42 <=1 
C195: x4+x44-y4_44 <=1 
C196: x4+x45 <=1 
C197: x4+x46-y4_46 <=1 
C198: x4+x48-y4_48 <=1 
C199: x4+x51-y4_51 <=1 
C200: x4+x52-y4_52 <=1 
C201: x4+x53 <=1 
C202: x4+x54 <=1 
C203: x4+x55-y4_55 <=1 
C204: x4+x56-y4_56 <=1 
C205: x4+x57 <=1 
C206: x4+x58-y4_58 <=1 
C207: x4+x59 <=1 
C208: x4+x60 <=1 
C209: x4+x61 <=1 
C210: x4+x62-y4_62 <=1 
C211: x4+x63-y4_63 <=1 
C212: x4+x64 <=1 
C213: x4+x65 <=1 
C214: x4+x66-y4_66 <=1 
C215: x4+x67-y4_67 <=1 
C216: x5+x9-y5_9 <=1 
C217: x5+x12 <=1 
C218: x5+x14 <=1 
C219: x5+x16-y5_16 <=1 
C220: x5+x17-y5_17 <=1 
C221: x5+x18-y5_18 <=1 
C222: x5+x19-y5_19 <=1 
C223: x5+x20-y5_20 <=1 
C224: x5+x21-y5_21 <=1 
C225: x5+x22-y5_22 <=1 
C226: x5+x23 <=1 
C227: x5+x24-y5_24 <=1 
C228: x5+x25 <=1 
C229: x5+x27 <=1 
C230: x5+x28-y5_28 <=1 
C231: x5+x29 <=1 
C232: x5+x30-y5_30 <=1 
C233: x5+x31-y5_31 <=1 
C234: x5+x32-y5_32 <=1 
C235: x5+x33-y5_33 <=1 
C236: x5+x34-y5_34 <=1 
C237: x5+x35 <=1 
C238: x5+x37-y5_37 <=1 
C239: x5+x38-y5_38 <=1 
C240: x5+x39 <=1 
C241: x5+x40 <=1 
C242: x5+x42-y5_42 <=1 
C243: x5+x43 <=1 
C244: x5+x48 <=1 
C245: x5+x52 <=1 
C246: x5+x53 <=1 
C247: x5+x55-y5_55 <=1 
C248: x5+x56-y5_56 <=1 
C249: x5+x57 <=1 
C250: x5+x59-y5_59 <=1 
C251: x5+x60-y5_60 <=1 
C252: x5+x64-y5_64 <=1 
C253: x5+x65 <=1 
C254: x5+x67 <=1 
C255: x6+x10-y6_10 <=1 
C256: x6+x12 <=1 
C257: x6+x13 <=1 
C258: x6+x14 <=1 
C259: x6+x16 <=1 
C260: x6+x17-y6_17 <=1 
C261: x6+x19-y6_19 <=1 
C262: x6+x20 <=1 
C263: x6+x21-y6_21 <=1 
C264: x6+x23-y6_23 <=1 
C265: x6+x24 <=1 
C266: x6+x25-y6_25 <=1 
C267: x6+x26-y6_26 <=1 
C268: x6+x29-y6_29 <=1 
C269: x6+x34-y6_34 <=1 
C270: x6+x35 <=1 
C271: x6+x38-y6_38 <=1 
C272: x6+x39-y6_39 <=1 
C273: x6+x41-y6_41 <=1 
C274: x6+x42 <=1 
C275: x6+x44 <=1 
C276: x6+x46-y6_46 <=1 
C277: x6+x47-y6_47 <=1 
C278: x6+x49-y6_49 <=1 
C279: x6+x51 <=1 
C280: x6+x53-y6_53 <=1 
C281: x6+x56-y6_56 <=1 
C282: x6+x57-y6_57 <=1 
C283: x6+x58-y6_58 <=1 
C284: x6+x61 <=1 
C285: x6+x62 <=1 
C286: x6+x64 <=1 
C287: x6+x65 <=1 
C288: x6+x67 <=1 
C289: x7+x8 <=1 
C290: x7+x10-y7_10 <=1 
C291: x7+x12 <=1 
C292: x7+x13-y7_13 <=1 
C293: x7+x14-y7_14 <=1 
C294: x7+x16 <=1 
C295: x7+x20 <=1 
C296: x7+x21 <=1 
C297: x7+x22-y7_22 <=1 
C298: x7+x23 <=1 
C299: x7+x24 <=1 
C300: x7+x25-y7_25 <=1 
C301: x7+x26-y7_26 <=1 
C302: x7+x27 <=1 
C303: x7+x28 <=1 
C304: x7+x29 <=1 
C305: x7+x31 <=1 
C306: x7+x32 <=1 
C307: x7+x33 <=1 
C308: x7+x34-y7_34 <=1 
C309: x7+x37 <=1 
C310: x7+x38 <=1 
C311: x7+x39-y7_39 <=1 
C312: x7+x41-y7_41 <=1 
C313: x7+x42 <=1 
C314: x7+x44-y7_44 <=1 
C315: x7+x45 <=1 
C316: x7+x47 <=1 
C317: x7+x48-y7_48 <=1 
C318: x7+x49-y7_49 <=1 
C319: x7+x50 <=1 
C320: x7+x55-y7_55 <=1 
C321: x7+x56 <=1 
C322: x7+x57 <=1 
C323: x7+x58-y7_58 <=1 
C324: x7+x60 <=1 
C325: x7+x62 <=1 
C326: x7+x64 <=1 
C327: x7+x65-y7_65 <=1 
C328: x7+x66 <=1 
C329: x7+x67-y7_67 <=1 
C330: x8+x10 <=1 
C331: x8+x11-y8_11 <=1 
C332: x8+x13-y8_13 <=1 
C333: x8+x14-y8_14 <=1 
C334: x8+x16 <=1 
C335: x8+x18 <=1 
C336: x8+x21 <=1 
C337: x8+x22 <=1 
C338: x8+x23-y8_23 <=1 
C339: x8+x24 <=1 
C340: x8+x26-y8_26 <=1 
C341: x8+x28-y8_28 <=1 
C342: x8+x29 <=1 
C343: x8+x31-y8_31 <=1 
C344: x8+x33-y8_33 <=1 
C345: x8+x34-y8_34 <=1 
C346: x8+x36-y8_36 <=1 
C347: x8+x38-y8_38 <=1 
C348: x8+x39-y8_39 <=1 
C349: x8+x40 <=1 
C350: x8+x41 <=1 
C351: x8+x43 <=1 
C352: x8+x44-y8_44 <=1 
C353: x8+x45 <=1 
C354: x8+x46 <=1 
C355: x8+x47-y8_47 <=1 
C356: x8+x50-y8_50 <=1 
C357: x8+x51 <=1 
C358: x8+x53 <=1 
C359: x8+x55-y8_55 <=1 
C360: x8+x56 <=1 
C361: x8+x60-y8_60 <=1 
C362: x8+x63 <=1 
C363: x8+x65-y8_65 <=1 
C364: x8+x67 <=1 
C365: x9+x12 <=1 
C366: x9+x14-y9_14 <=1 
C367: x9+x15 <=1 
C368: x9+x17-y9_17 <=1 
C369: x9+x18 <=1 
C370: x9+x21-y9_21 <=1 
C371: x9+x22 <=1 
C372: x9+x24-y9_24 <=1 
C373: x9+x25-y9_25 <=1 
C374: x9+x26 <=1 
C375: x9+x27-y9_27 <=1 
C376: x9+x28 <=1 
C377: x9+x29 <=1 
C378: x9+x30 <=1 
C379: x9+x31 <=1 
C380: x9+x32-y9_32 <=1 
C381: x9+x33-y9_33 <=1 
C382: x9+x34 <=1 
C383: x9+x35-y9_35 <=1 
C384: x9+x40 <=1 
C385: x9+x41-y9_41 <=1 
C386: x9+x45 <=1 
C387: x9+x46 <=1 
C388: x9+x49 <=1 
C389: x9+x50-y9_50 <=1 
C390: x9+x51-y9_51 <=1 
C391: x9+x52-y9_52 <=1 
C392: x9+x53 <=1 
C393: x9+x54-y9_54 <=1 
C394: x9+x55-y9_55 <=1 
C395: x9+x61 <=1 
C396: x9+x62 <=1 
C397: x9+x63 <=1 
C398: x9+x64 <=1 
C399: x9+x65 <=1 
C400: x9+x66-y9_66 <=1 
C401: x9+x67 <=1 
C402: x10+x11 <=1 
C403: x10+x13 <=1 
C404: x10+x15 <=1 
C405: x10+x20 <=1 
C406: x10+x23 <=1 
C407: x10+x24 <=1 
C408: x10+x25 <=1 
C409: x10+x27 <=1 
C410: x10+x29 <=1 
C411: x10+x31-y10_31 <=1 
C412: x10+x33-y10_33 <=1 
C413: x10+x34-y10_34 <=1 
C414: x10+x37 <=1 
C415: x10+x38 <=1 
C416: x10+x40-y10_40 <=1 
C417: x10+x41 <=1 
C418: x10+x42 <=1 
C419: x10+x48-y10_48 <=1 
C420: x10+x50-y10_50 <=1 
C421: x10+x51-y10_51 <=1 
C422: x10+x57-y10_57 <=1 
C423: x10+x58 <=1 
C424: x10+x60 <=1 
C425: x10+x61 <=1 
C426: x10+x63 <=1 
C427: x10+x66-y10_66 <=1 
C428: x10+x67-y10_67 <=1 
C429: x11+x12 <=1 
C430: x11+x13 <=1 
C431: x11+x16 <=1 
C432: x11+x17 <=1 
C433: x11+x18-y11_18 <=1 
C434: x11+x20 <=1 
C435: x11+x24-y11_24 <=1 
C436: x11+x25-y11_25 <=1 
C437: x11+x29-y11_29 <=1 
C438: x11+x32 <=1 
C439: x11+x33-y11_33 <=1 
C440: x11+x36 <=1 
C441: x11+x37-y11_37 <=1 
C442: x11+x40-y11_40 <=1 
C443: x11+x41-y11_41 <=1 
C444: x11+x42 <=1 
C445: x11+x43 <=1 
C446: x11+x46-y11_46 <=1 
C447: x11+x48-y11_48 <=1 
C448: x11+x49-y11_49 <=1 
C449: x11+x51 <=1 
C450: x11+x52 <=1 
C451: x11+x53-y11_53 <=1 
C452: x11+x54-y11_54 <=1 
C453: x11+x55 <=1 
C454: x11+x56 <=1 
C455: x11+x57-y11_57 <=1 
C456: x11+x62-y11_62 <=1 
C457: x11+x63 <=1 
C458: x11+x64 <=1 
C459: x12+x14-y12_14 <=1 
C460: x12+x16-y12_16 <=1 
C461: x12+x18-y12_18 <=1 
C462: x12+x19 <=1 
C463: x12+x21 <=1 
C464: x12+x24 <=1 
C465: x12+x27-y12_27 <=1 
C466: x12+x28 <=1 
C467: x12+x29 <=1 
C468: x12+x30 <=1 
C469: x12+x33-y12_33 <=1 
C470: x12+x34-y12_34 <=1 
C471: x12+x35 <=1 
C472: x12+x36 <=1 
C473: x12+x37-y12_37 <=1 
C474: x12+x38 <=1 
C475: x12+x39 <=1 
C476: x12+x40 <=1 
C477: x12+x43-y12_43 <=1 
C478: x12+x45 <=1 
C479: x12+x48 <=1 
C480: x12+x51 <=1 
C481: x12+x52 <=1 
C482: x12+x53 <=1 
C483: x12+x54-y12_54 <=1 
C484: x12+x55-y12_55 <=1 
C485: x12+x58-y12_58 <=1 
C486: x12+x59-y12_59 <=1 
C487: x12+x61 <=1 
C488: x12+x64 <=1 
C489: x12+x67-y12_67 <=1 
C490: x13+x14 <=1 
C491: x13+x15 <=1 
C492: x13+x17-y13_17 <=1 
C493: x13+x19-y13_19 <=1 
C494: x13+x20 <=1 
C495: x13+x22 <=1 
C496: x13+x25-y13_25 <=1 
C497: x13+x27 <=1 
C498: x13+x28 <=1 
C499: x13+x30 <=1 
C500: x13+x31-y13_31 <=1 
C501: x13+x32-y13_32 <=1 
C502: x13+x34-y13_34 <=1 
C503: x13+x35-y13_35 <=1 
C504: x13+x36 <=1 
C505: x13+x37 <=1 
C506: x13+x39 <=1 
C507: x13+x41 <=1 
C508: x13+x42-y13_42 <=1 
C509: x13+x45-y13_45 <=1 
C510: x13+x51 <=1 
C511: x13+x52 <=1 
C512: x13+x53-y13_53 <=1 
C513: x13+x54-y13_54 <=1 
C514: x13+x55-y13_55 <=1 
C515: x13+x57 <=1 
C516: x13+x58 <=1 
C517: x13+x59-y13_59 <=1 
C518: x13+x60 <=1 
C519: x13+x61 <=1 
C520: x13+x62 <=1 
C521: x13+x63 <=1 
C522: x13+x64 <=1 
C523: x13+x65 <=1 
C524: x13+x66-y13_66 <=1 
C525: x14+x16 <=1 
C526: x14+x17-y14_17 <=1 
C527: x14+x18 <=1 
C528: x14+x22 <=1 
C529: x14+x23 <=1 
C530: x14+x24-y14_24 <=1 
C531: x14+x25 <=1 
C532: x14+x27-y14_27 <=1 
C533: x14+x28-y14_28 <=1 
C534: x14+x29-y14_29 <=1 
C535: x14+x30 <=1 
C536: x14+x32-y14_32 <=1 
C537: x14+x34 <=1 
C538: x14+x36-y14_36 <=1 
C539: x14+x38 <=1 
C540: x14+x39 <=1 
C541: x14+x42 <=1 
C542: x14+x45-y14_45 <=1 
C543: x14+x46 <=1 
C544: x14+x47 <=1 
C545: x14+x48-y14_48 <=1 
C546: x14+x50-y14_50 <=1 
C547: x14+x51-y14_51 <=1 
C548: x14+x52 <=1 
C549: x14+x53-y14_53 <=1 
C550: x14+x54-y14_54 <=1 
C551: x14+x56 <=1 
C552: x14+x58-y14_58 <=1 
C553: x14+x59 <=1 
C554: x14+x62 <=1 
C555: x14+x66 <=1 
C556: x15+x16 <=1 
C557: x15+x17-y15_17 <=1 
C558: x15+x18 <=1 
C559: x15+x22-y15_22 <=1 
C560: x15+x23 <=1 
C561: x15+x24 <=1 
C562: x15+x27-y15_27 <=1 
C563: x15+x28 <=1 
C564: x15+x29 <=1 
C565: x15+x31-y15_31 <=1 
C566: x15+x33-y15_33 <=1 
C567: x15+x35-y15_35 <=1 
C568: x15+x36-y15_36 <=1 
C569: x15+x37-y15_37 <=1 
C570: x15+x39 <=1 
C571: x15+x40 <=1 
C572: x15+x42-y15_42 <=1 
C573: x15+x44-y15_44 <=1 
C574: x15+x46-y15_46 <=1 
C575: x15+x49-y15_49 <=1 
C576: x15+x50-y15_50 <=1 
C577: x15+x52 <=1 
C578: x15+x53 <=1 
C579: x15+x57-y15_57 <=1 
C580: x15+x58 <=1 
C581: x15+x59-y15_59 <=1 
C582: x15+x60 <=1 
C583: x15+x61 <=1 
C584: x15+x62-y15_62 <=1 
C585: x15+x65 <=1 
C586: x15+x66-y15_66 <=1 
C587: x15+x67 <=1 
C588: x16+x18-y16_18 <=1 
C589: x16+x20 <=1 
C590: x16+x22-y16_22 <=1 
C591: x16+x23 <=1 
C592: x16+x24-y16_24 <=1 
C593: x16+x27-y16_27 <=1 
C594: x16+x29-y16_29 <=1 
C595: x16+x32 <=1 
C596: x16+x33 <=1 
C597: x16+x34 <=1 
C598: x16+x35 <=1 
C599: x16+x36 <=1 
C600: x16+x39 <=1 
C601: x16+x40-y16_40 <=1 
C602: x16+x41-y16_41 <=1 
C603: x16+x42-y16_42 <=1 
C604: x16+x43-y16_43 <=1 
C605: x16+x45-y16_45 <=1 
C606: x16+x47 <=1 
C607: x16+x48 <=1 
C608: x16+x49-y16_49 <=1 
C609: x16+x50-y16_50 <=1 
C610: x16+x51-y16_51 <=1 
C611: x16+x52-y16_52 <=1 
C612: x16+x53-y16_53 <=1 
C613: x16+x54 <=1 
C614: x16+x55-y16_55 <=1 
C615: x16+x58 <=1 
C616: x16+x59-y16_59 <=1 
C617: x16+x60 <=1 
C618: x16+x61-y16_61 <=1 
C619: x16+x62 <=1 
C620: x16+x63 <=1 
C621: x16+x64 <=1 
C622: x16+x65 <=1 
C623: x16+x66-y16_66 <=1 
C624: x17+x18-y17_18 <=1 
C625: x17+x19 <=1 
C626: x17+x20-y17_20 <=1 
C627: x17+x23 <=1 
C628: x17+x24 <=1 
C629: x17+x25 <=1 
C630: x17+x26-y17_26 <=1 
C631: x17+x27-y17_27 <=1 
C632: x17+x28 <=1 
C633: x17+x31-y17_31 <=1 
C634: x17+x32 <=1 
C635: x17+x33 <=1 
C636: x17+x34-y17_34 <=1 
C637: x17+x35 <=1 
C638: x17+x36-y17_36 <=1 
C639: x17+x40-y17_40 <=1 
C640: x17+x41 <=1 
C641: x17+x44-y17_44 <=1 
C642: x17+x47-y17_47 <=1 
C643: x17+x48 <=1 
C644: x17+x50 <=1 
C645: x17+x52 <=1 
C646: x17+x54-y17_54 <=1 
C647: x17+x57 <=1 
C648: x17+x59 <=1 
C649: x17+x60 <=1 
C650: x17+x64 <=1 
C651: x17+x65 <=1 
C652: x17+x66-y17_66 <=1 
C653: x18+x21 <=1 
C654: x18+x22 <=1 
C655: x18+x25-y18_25 <=1 
C656: x18+x27-y18_27 <=1 
C657: x18+x28-y18_28 <=1 
C658: x18+x29 <=1 
C659: x18+x30 <=1 
C660: x18+x32 <=1 
C661: x18+x34-y18_34 <=1 
C662: x18+x35-y18_35 <=1 
C663: x18+x37 <=1 
C664: x18+x40-y18_40 <=1 
C665: x18+x41 <=1 
C666: x18+x42-y18_42 <=1 
C667: x18+x44-y18_44 <=1 
C668: x18+x45-y18_45 <=1 
C669: x18+x52 <=1 
C670: x18+x53 <=1 
C671: x18+x54-y18_54 <=1 
C672: x18+x55 <=1 
C673: x18+x56 <=1 
C674: x18+x57-y18_57 <=1 
C675: x18+x59 <=1 
C676: x18+x60-y18_60 <=1 
C677: x18+x61 <=1 
C678: x18+x63 <=1 
C679: x18+x64 <=1 
C680: x18+x66 <=1 
C681: x18+x67-y18_67 <=1 
C682: x19+x20-y19_20 <=1 
C683: x19+x21 <=1 
C684: x19+x22 <=1 
C685: x19+x23-y19_23 <=1 
C686: x19+x24 <=1 
C687: x19+x25-y19_25 <=1 
C688: x19+x26 <=1 
C689: x19+x27 <=1 
C690: x19+x28 <=1 
C691: x19+x31-y19_31 <=1 
C692: x19+x35-y19_35 <=1 
C693: x19+x38 <=1 
C694: x19+x44 <=1 
C695: x19+x46-y19_46 <=1 
C696: x19+x48 <=1 
C697: x19+x50 <=1 
C698: x19+x52 <=1 
C699: x19+x53-y19_53 <=1 
C700: x19+x54-y19_54 <=1 
C701: x19+x63-y19_63 <=1 
C702: x19+x64 <=1 
C703: x19+x65-y19_65 <=1 
C704: x19+x66 <=1 
C705: x19+x67 <=1 
C706: x20+x21 <=1 
C707: x20+x24-y20_24 <=1 
C708: x20+x25 <=1 
C709: x20+x26-y20_26 <=1 
C710: x20+x27 <=1 
C711: x20+x29-y20_29 <=1 
C712: x20+x30-y20_30 <=1 
C713: x20+x32 <=1 
C714: x20+x34 <=1 
C715: x20+x37 <=1 
C716: x20+x38 <=1 
C717: x20+x40-y20_40 <=1 
C718: x20+x41-y20_41 <=1 
C719: x20+x42-y20_42 <=1 
C720: x20+x43-y20_43 <=1 
C721: x20+x46-y20_46 <=1 
C722: x20+x47-y20_47 <=1 
C723: x20+x48 <=1 
C724: x20+x51 <=1 
C725: x20+x52-y20_52 <=1 
C726: x20+x53-y20_53 <=1 
C727: x20+x54-y20_54 <=1 
C728: x20+x56 <=1 
C729: x20+x57-y20_57 <=1 
C730: x20+x58-y20_58 <=1 
C731: x20+x59-y20_59 <=1 
C732: x20+x63-y20_63 <=1 
C733: x20+x65 <=1 
C734: x21+x22-y21_22 <=1 
C735: x21+x25-y21_25 <=1 
C736: x21+x26-y21_26 <=1 
C737: x21+x27-y21_27 <=1 
C738: x21+x28 <=1 
C739: x21+x29 <=1 
C740: x21+x33 <=1 
C741: x21+x34-y21_34 <=1 
C742: x21+x35-y21_35 <=1 
C743: x21+x36-y21_36 <=1 
C744: x21+x38-y21_38 <=1 
C745: x21+x39 <=1 
C746: x21+x40 <=1 
C747: x21+x41-y21_41 <=1 
C748: x21+x42-y21_42 <=1 
C749: x21+x43-y21_43 <=1 
C750: x21+x45-y21_45 <=1 
C751: x21+x47-y21_47 <=1 
C752: x21+x50 <=1 
C753: x21+x51 <=1 
C754: x21+x53-y21_53 <=1 
C755: x21+x54-y21_54 <=1 
C756: x21+x55 <=1 
C757: x21+x56 <=1 
C758: x21+x57-y21_57 <=1 
C759: x21+x58-y21_58 <=1 
C760: x21+x59-y21_59 <=1 
C761: x21+x62 <=1 
C762: x21+x63 <=1 
C763: x21+x64 <=1 
C764: x21+x65 <=1 
C765: x22+x23 <=1 
C766: x22+x24 <=1 
C767: x22+x25-y22_25 <=1 
C768: x22+x26-y22_26 <=1 
C769: x22+x27 <=1 
C770: x22+x30-y22_30 <=1 
C771: x22+x31-y22_31 <=1 
C772: x22+x32 <=1 
C773: x22+x33-y22_33 <=1 
C774: x22+x34-y22_34 <=1 
C775: x22+x35-y22_35 <=1 
C776: x22+x37-y22_37 <=1 
C777: x22+x39-y22_39 <=1 
C778: x22+x41 <=1 
C779: x22+x43-y22_43 <=1 
C780: x22+x44-y22_44 <=1 
C781: x22+x47-y22_47 <=1 
C782: x22+x48-y22_48 <=1 
C783: x22+x49 <=1 
C784: x22+x50-y22_50 <=1 
C785: x22+x51 <=1 
C786: x22+x53-y22_53 <=1 
C787: x22+x54-y22_54 <=1 
C788: x22+x57-y22_57 <=1 
C789: x22+x58 <=1 
C790: x22+x59-y22_59 <=1 
C791: x22+x61-y22_61 <=1 
C792: x22+x62-y22_62 <=1 
C793: x22+x63 <=1 
C794: x22+x64-y22_64 <=1 
C795: x22+x65 <=1 
C796: x22+x66-y22_66 <=1 
C797: x22+x67 <=1 
C798: x23+x27 <=1 
C799: x23+x29-y23_29 <=1 
C800: x23+x31-y23_31 <=1 
C801: x23+x33-y23_33 <=1 
C802: x23+x37-y23_37 <=1 
C803: x23+x38 <=1 
C804: x23+x40-y23_40 <=1 
C805: x23+x42-y23_42 <=1 
C806: x23+x43 <=1 
C807: x23+x45-y23_45 <=1 
C808: x23+x49-y23_49 <=1 
C809: x23+x50 <=1 
C810: x23+x51 <=1 
C811: x23+x52-y23_52 <=1 
C812: x23+x53 <=1 
C813: x23+x54-y23_54 <=1 
C814: x23+x55-y23_55 <=1 
C815: x23+x56 <=1 
C816: x23+x59 <=1 
C817: x23+x61-y23_61 <=1 
C818: x23+x62 <=1 
C819: x23+x63 <=1 
C820: x23+x64-y23_64 <=1 
C821: x23+x65 <=1 
C822: x23+x67-y23_67 <=1 
C823: x24+x27 <=1 
C824: x24+x30-y24_30 <=1 
C825: x24+x33-y24_33 <=1 
C826: x24+x34 <=1 
C827: x24+x36-y24_36 <=1 
C828: x24+x37 <=1 
C829: x24+x39 <=1 
C830: x24+x40-y24_40 <=1 
C831: x24+x43 <=1 
C832: x24+x45 <=1 
C833: x24+x47 <=1 
C834: x24+x48 <=1 
C835: x24+x53-y24_53 <=1 
C836: x24+x54-y24_54 <=1 
C837: x24+x56 <=1 
C838: x24+x59 <=1 
C839: x24+x60 <=1 
C840: x24+x62-y24_62 <=1 
C841: x24+x66 <=1 
C842: x24+x67-y24_67 <=1 
C843: x25+x26 <=1 
C844: x25+x28 <=1 
C845: x25+x30 <=1 
C846: x25+x32-y25_32 <=1 
C847: x25+x34 <=1 
C848: x25+x35-y25_35 <=1 
C849: x25+x38 <=1 
C850: x25+x39-y25_39 <=1 
C851: x25+x40-y25_40 <=1 
C852: x25+x41-y25_41 <=1 
C853: x25+x42-y25_42 <=1 
C854: x25+x43-y25_43 <=1 
C855: x25+x44 <=1 
C856: x25+x45-y25_45 <=1 
C857: x25+x47-y25_47 <=1 
C858: x25+x50 <=1 
C859: x25+x51 <=1 
C860: x25+x52-y25_52 <=1 
C861: x25+x53-y25_53 <=1 
C862: x25+x54-y25_54 <=1 
C863: x25+x55-y25_55 <=1 
C864: x25+x57 <=1 
C865: x25+x58 <=1 
C866: x25+x59 <=1 
C867: x25+x60 <=1 
C868: x25+x61 <=1 
C869: x25+x63-y25_63 <=1 
C870: x25+x64 <=1 
C871: x25+x65-y25_65 <=1 
C872: x25+x66-y25_66 <=1 
C873: x25+x67 <=1 
C874: x26+x27 <=1 
C875: x26+x28 <=1 
C876: x26+x29 <=1 
C877: x26+x30 <=1 
C878: x26+x31-y26_31 <=1 
C879: x26+x33 <=1 
C880: x26+x34 <=1 
C881: x26+x43 <=1 
C882: x26+x44-y26_44 <=1 
C883: x26+x46 <=1 
C884: x26+x48 <=1 
C885: x26+x49 <=1 
C886: x26+x51 <=1 
C887: x26+x54 <=1 
C888: x26+x55-y26_55 <=1 
C889: x26+x57-y26_57 <=1 
C890: x26+x58 <=1 
C891: x26+x59 <=1 
C892: x26+x60 <=1 
C893: x26+x61 <=1 
C894: x26+x64-y26_64 <=1 
C895: x26+x65 <=1 
C896: x26+x66-y26_66 <=1 
C897: x26+x67 <=1 
C898: x27+x29-y27_29 <=1 
C899: x27+x31-y27_31 <=1 
C900: x27+x32 <=1 
C901: x27+x34 <=1 
C902: x27+x36-y27_36 <=1 
C903: x27+x37-y27_37 <=1 
C904: x27+x38 <=1 
C905: x27+x39-y27_39 <=1 
C906: x27+x41-y27_41 <=1 
C907: x27+x42 <=1 
C908: x27+x44-y27_44 <=1 
C909: x27+x45-y27_45 <=1 
C910: x27+x46 <=1 
C911: x27+x47 <=1 
C912: x27+x48-y27_48 <=1 
C913: x27+x51 <=1 
C914: x27+x52-y27_52 <=1 
C915: x27+x53 <=1 
C916: x27+x54-y27_54 <=1 
C917: x27+x55 <=1 
C918: x27+x56 <=1 
C919: x27+x58 <=1 
C920: x27+x60-y27_60 <=1 
C921: x27+x62 <=1 
C922: x27+x63-y27_63 <=1 
C923: x27+x65-y27_65 <=1 
C924: x27+x66-y27_66 <=1 
C925: x27+x67 <=1 
C926: x28+x29-y28_29 <=1 
C927: x28+x34 <=1 
C928: x28+x42 <=1 
C929: x28+x44-y28_44 <=1 
C930: x28+x45-y28_45 <=1 
C931: x28+x46-y28_46 <=1 
C932: x28+x47-y28_47 <=1 
C933: x28+x48-y28_48 <=1 
C934: x28+x50-y28_50 <=1 
C935: x28+x51-y28_51 <=1 
C936: x28+x52 <=1 
C937: x28+x53 <=1 
C938: x28+x57-y28_57 <=1 
C939: x28+x58-y28_58 <=1 
C940: x28+x59-y28_59 <=1 
C941: x28+x60-y28_60 <=1 
C942: x28+x62 <=1 
C943: x28+x63-y28_63 <=1 
C944: x28+x64 <=1 
C945: x28+x65 <=1 
C946: x28+x66-y28_66 <=1 
C947: x28+x67 <=1 
C948: x29+x30-y29_30 <=1 
C949: x29+x33-y29_33 <=1 
C950: x29+x35 <=1 
C951: x29+x38 <=1 
C952: x29+x39 <=1 
C953: x29+x40 <=1 
C954: x29+x42-y29_42 <=1 
C955: x29+x44 <=1 
C956: x29+x45 <=1 
C957: x29+x46-y29_46 <=1 
C958: x29+x49-y29_49 <=1 
C959: x29+x51-y29_51 <=1 
C960: x29+x53 <=1 
C961: x29+x54 <=1 
C962: x29+x56-y29_56 <=1 
C963: x29+x57-y29_57 <=1 
C964: x29+x59-y29_59 <=1 
C965: x29+x62-y29_62 <=1 
C966: x29+x63 <=1 
C967: x29+x64-y29_64 <=1 
C968: x29+x65 <=1 
C969: x29+x66-y29_66 <=1 
C970: x29+x67 <=1 
C971: x30+x31-y30_31 <=1 
C972: x30+x32 <=1 
C973: x30+x34-y30_34 <=1 
C974: x30+x35-y30_35 <=1 
C975: x30+x36-y30_36 <=1 
C976: x30+x37-y30_37 <=1 
C977: x30+x38 <=1 
C978: x30+x40-y30_40 <=1 
C979: x30+x41 <=1 
C980: x30+x42 <=1 
C981: x30+x43 <=1 
C982: x30+x44 <=1 
C983: x30+x49-y30_49 <=1 
C984: x30+x50 <=1 
C985: x30+x51 <=1 
C986: x30+x56 <=1 
C987: x30+x58-y30_58 <=1 
C988: x30+x59 <=1 
C989: x30+x64 <=1 
C990: x30+x65-y30_65 <=1 
C991: x31+x33 <=1 
C992: x31+x35-y31_35 <=1 
C993: x31+x36-y31_36 <=1 
C994: x31+x37-y31_37 <=1 
C995: x31+x38-y31_38 <=1 
C996: x31+x39 <=1 
C997: x31+x40-y31_40 <=1 
C998: x31+x43-y31_43 <=1 
C999: x31+x44 <=1 
C1000: x31+x45 <=1 
C1001: x31+x47 <=1 
C1002: x31+x48 <=1 
C1003: x31+x49 <=1 
C1004: x31+x53 <=1 
C1005: x31+x54 <=1 
C1006: x31+x59 <=1 
C1007: x31+x60 <=1 
C1008: x31+x62 <=1 
C1009: x31+x64 <=1 
C1010: x31+x66-y31_66 <=1 
C1011: x32+x33 <=1 
C1012: x32+x34-y32_34 <=1 
C1013: x32+x37-y32_37 <=1 
C1014: x32+x38-y32_38 <=1 
C1015: x32+x41-y32_41 <=1 
C1016: x32+x42-y32_42 <=1 
C1017: x32+x45-y32_45 <=1 
C1018: x32+x48-y32_48 <=1 
C1019: x32+x49 <=1 
C1020: x32+x51-y32_51 <=1 
C1021: x32+x52 <=1 
C1022: x32+x53-y32_53 <=1 
C1023: x32+x54-y32_54 <=1 
C1024: x32+x56 <=1 
C1025: x32+x58 <=1 
C1026: x32+x59-y32_59 <=1 
C1027: x32+x60 <=1 
C1028: x32+x61-y32_61 <=1 
C1029: x32+x63 <=1 
C1030: x32+x67-y32_67 <=1 
C1031: x33+x34 <=1 
C1032: x33+x35-y33_35 <=1 
C1033: x33+x36 <=1 
C1034: x33+x38 <=1 
C1035: x33+x39-y33_39 <=1 
C1036: x33+x43 <=1 
C1037: x33+x44-y33_44 <=1 
C1038: x33+x45 <=1 
C1039: x33+x46-y33_46 <=1 
C1040: x33+x48 <=1 
C1041: x33+x49 <=1 
C1042: x33+x50-y33_50 <=1 
C1043: x33+x51-y33_51 <=1 
C1044: x33+x52-y33_52 <=1 
C1045: x33+x56-y33_56 <=1 
C1046: x33+x59 <=1 
C1047: x33+x60-y33_60 <=1 
C1048: x33+x61 <=1 
C1049: x33+x62-y33_62 <=1 
C1050: x33+x64-y33_64 <=1 
C1051: x33+x67 <=1 
C1052: x34+x35-y34_35 <=1 
C1053: x34+x37 <=1 
C1054: x34+x38 <=1 
C1055: x34+x40-y34_40 <=1 
C1056: x34+x42-y34_42 <=1 
C1057: x34+x43-y34_43 <=1 
C1058: x34+x45-y34_45 <=1 
C1059: x34+x47 <=1 
C1060: x34+x48 <=1 
C1061: x34+x49 <=1 
C1062: x34+x51 <=1 
C1063: x34+x54-y34_54 <=1 
C1064: x34+x58-y34_58 <=1 
C1065: x34+x59 <=1 
C1066: x34+x61-y34_61 <=1 
C1067: x34+x62 <=1 
C1068: x34+x63-y34_63 <=1 
C1069: x34+x64 <=1 
C1070: x34+x65-y34_65 <=1 
C1071: x34+x66 <=1 
C1072: x35+x37 <=1 
C1073: x35+x38 <=1 
C1074: x35+x46 <=1 
C1075: x35+x47 <=1 
C1076: x35+x49-y35_49 <=1 
C1077: x35+x52 <=1 
C1078: x35+x54 <=1 
C1079: x35+x56-y35_56 <=1 
C1080: x35+x59 <=1 
C1081: x35+x60-y35_60 <=1 
C1082: x35+x61-y35_61 <=1 
C1083: x35+x62 <=1 
C1084: x35+x63 <=1 
C1085: x35+x64-y35_64 <=1 
C1086: x35+x66 <=1 
C1087: x35+x67-y35_67 <=1 
C1088: x36+x38-y36_38 <=1 
C1089: x36+x41-y36_41 <=1 
C1090: x36+x42 <=1 
C1091: x36+x43 <=1 
C1092: x36+x44-y36_44 <=1 
C1093: x36+x46-y36_46 <=1 
C1094: x36+x47 <=1 
C1095: x36+x51-y36_51 <=1 
C1096: x36+x54-y36_54 <=1 
C1097: x36+x57 <=1 
C1098: x36+x58-y36_58 <=1 
C1099: x36+x60 <=1 
C1100: x36+x62-y36_62 <=1 
C1101: x36+x63-y36_63 <=1 
C1102: x36+x64 <=1 
C1103: x36+x65 <=1 
C1104: x36+x66-y36_66 <=1 
C1105: x36+x67 <=1 
C1106: x37+x38-y37_38 <=1 
C1107: x37+x40 <=1 
C1108: x37+x42 <=1 
C1109: x37+x46 <=1 
C1110: x37+x47 <=1 
C1111: x37+x49-y37_49 <=1 
C1112: x37+x50 <=1 
C1113: x37+x52-y37_52 <=1 
C1114: x37+x53 <=1 
C1115: x37+x56 <=1 
C1116: x37+x59-y37_59 <=1 
C1117: x37+x60 <=1 
C1118: x37+x63 <=1 
C1119: x37+x64-y37_64 <=1 
C1120: x37+x66 <=1 
C1121: x37+x67 <=1 
C1122: x38+x41 <=1 
C1123: x38+x44 <=1 
C1124: x38+x45 <=1 
C1125: x38+x47 <=1 
C1126: x38+x48 <=1 
C1127: x38+x49 <=1 
C1128: x38+x50-y38_50 <=1 
C1129: x38+x54 <=1 
C1130: x38+x55-y38_55 <=1 
C1131: x38+x56-y38_56 <=1 
C1132: x38+x58 <=1 
C1133: x38+x60 <=1 
C1134: x38+x61-y38_61 <=1 
C1135: x38+x63-y38_63 <=1 
C1136: x38+x65 <=1 
C1137: x38+x66-y38_66 <=1 
C1138: x38+x67-y38_67 <=1 
C1139: x39+x40 <=1 
C1140: x39+x41 <=1 
C1141: x39+x44-y39_44 <=1 
C1142: x39+x46 <=1 
C1143: x39+x50-y39_50 <=1 
C1144: x39+x52-y39_52 <=1 
C1145: x39+x53 <=1 
C1146: x39+x54 <=1 
C1147: x39+x55-y39_55 <=1 
C1148: x39+x56-y39_56 <=1 
C1149: x39+x57-y39_57 <=1 
C1150: x39+x60 <=1 
C1151: x39+x61 <=1 
C1152: x39+x62-y39_62 <=1 
C1153: x39+x63 <=1 
C1154: x39+x65-y39_65 <=1 
C1155: x39+x66 <=1 
C1156: x40+x42 <=1 
C1157: x40+x44-y40_44 <=1 
C1158: x40+x46-y40_46 <=1 
C1159: x40+x47-y40_47 <=1 
C1160: x40+x48 <=1 
C1161: x40+x49-y40_49 <=1 
C1162: x40+x50 <=1 
C1163: x40+x51 <=1 
C1164: x40+x52-y40_52 <=1 
C1165: x40+x53-y40_53 <=1 
C1166: x40+x54 <=1 
C1167: x40+x55 <=1 
C1168: x40+x56 <=1 
C1169: x40+x57 <=1 
C1170: x40+x58-y40_58 <=1 
C1171: x40+x63 <=1 
C1172: x40+x64 <=1 
C1173: x40+x65 <=1 
C1174: x40+x66-y40_66 <=1 
C1175: x41+x43-y41_43 <=1 
C1176: x41+x44-y41_44 <=1 
C1177: x41+x51 <=1 
C1178: x41+x55-y41_55 <=1 
C1179: x41+x56 <=1 
C1180: x41+x58-y41_58 <=1 
C1181: x41+x62-y41_62 <=1 
C1182: x41+x66-y41_66 <=1 
C1183: x42+x45 <=1 
C1184: x42+x46 <=1 
C1185: x42+x49 <=1 
C1186: x42+x50-y42_50 <=1 
C1187: x42+x51-y42_51 <=1 
C1188: x42+x54 <=1 
C1189: x42+x56 <=1 
C1190: x42+x57-y42_57 <=1 
C1191: x42+x58 <=1 
C1192: x42+x59 <=1 
C1193: x42+x60 <=1 
C1194: x42+x61 <=1 
C1195: x42+x62 <=1 
C1196: x42+x63-y42_63 <=1 
C1197: x42+x64 <=1 
C1198: x42+x65-y42_65 <=1 
C1199: x42+x66-y42_66 <=1 
C1200: x42+x67 <=1 
C1201: x43+x44 <=1 
C1202: x43+x45-y43_45 <=1 
C1203: x43+x46 <=1 
C1204: x43+x47-y43_47 <=1 
C1205: x43+x48 <=1 
C1206: x43+x49 <=1 
C1207: x43+x51-y43_51 <=1 
C1208: x43+x54-y43_54 <=1 
C1209: x43+x55-y43_55 <=1 
C1210: x43+x56 <=1 
C1211: x43+x58-y43_58 <=1 
C1212: x43+x60-y43_60 <=1 
C1213: x43+x61 <=1 
C1214: x43+x62 <=1 
C1215: x43+x67-y43_67 <=1 
C1216: x44+x45-y44_45 <=1 
C1217: x44+x46-y44_46 <=1 
C1218: x44+x47 <=1 
C1219: x44+x52 <=1 
C1220: x44+x53 <=1 
C1221: x44+x54-y44_54 <=1 
C1222: x44+x55-y44_55 <=1 
C1223: x44+x56 <=1 
C1224: x44+x58 <=1 
C1225: x44+x60 <=1 
C1226: x44+x62 <=1 
C1227: x44+x63-y44_63 <=1 
C1228: x44+x64-y44_64 <=1 
C1229: x44+x65-y44_65 <=1 
C1230: x44+x66-y44_66 <=1 
C1231: x45+x46 <=1 
C1232: x45+x48 <=1 
C1233: x45+x50-y45_50 <=1 
C1234: x45+x51 <=1 
C1235: x45+x52-y45_52 <=1 
C1236: x45+x55-y45_55 <=1 
C1237: x45+x58-y45_58 <=1 
C1238: x45+x59 <=1 
C1239: x45+x60-y45_60 <=1 
C1240: x45+x61 <=1 
C1241: x45+x62-y45_62 <=1 
C1242: x45+x63 <=1 
C1243: x45+x67-y45_67 <=1 
C1244: x46+x47-y46_47 <=1 
C1245: x46+x48 <=1 
C1246: x46+x49 <=1 
C1247: x46+x50-y46_50 <=1 
C1248: x46+x51 <=1 
C1249: x46+x53 <=1 
C1250: x46+x54-y46_54 <=1 
C1251: x46+x55 <=1 
C1252: x46+x56-y46_56 <=1 
C1253: x46+x58 <=1 
C1254: x46+x59 <=1 
C1255: x46+x62-y46_62 <=1 
C1256: x46+x63-y46_63 <=1 
C1257: x46+x66 <=1 
C1258: x46+x67-y46_67 <=1 
C1259: x47+x48-y47_48 <=1 
C1260: x47+x49-y47_49 <=1 
C1261: x47+x50 <=1 
C1262: x47+x51-y47_51 <=1 
C1263: x47+x52-y47_52 <=1 
C1264: x47+x53 <=1 
C1265: x47+x55-y47_55 <=1 
C1266: x47+x56 <=1 
C1267: x47+x57-y47_57 <=1 
C1268: x47+x58 <=1 
C1269: x47+x59 <=1 
C1270: x47+x60-y47_60 <=1 
C1271: x47+x61 <=1 
C1272: x47+x62-y47_62 <=1 
C1273: x47+x63 <=1 
C1274: x47+x64-y47_64 <=1 
C1275: x47+x65-y47_65 <=1 
C1276: x47+x66 <=1 
C1277: x48+x49 <=1 
C1278: x48+x51 <=1 
C1279: x48+x52-y48_52 <=1 
C1280: x48+x56-y48_56 <=1 
C1281: x48+x57 <=1 
C1282: x48+x59-y48_59 <=1 
C1283: x48+x60-y48_60 <=1 
C1284: x48+x63 <=1 
C1285: x48+x67 <=1 
C1286: x49+x50 <=1 
C1287: x49+x51-y49_51 <=1 
C1288: x49+x52-y49_52 <=1 
C1289: x49+x53-y49_53 <=1 
C1290: x49+x54-y49_54 <=1 
C1291: x49+x55-y49_55 <=1 
C1292: x49+x56-y49_56 <=1 
C1293: x49+x57 <=1 
C1294: x49+x59 <=1 
C1295: x49+x60-y49_60 <=1 
C1296: x49+x61 <=1 
C1297: x49+x62-y49_62 <=1 
C1298: x49+x65 <=1 
C1299: x49+x67-y49_67 <=1 
C1300: x50+x51 <=1 
C1301: x50+x53 <=1 
C1302: x50+x56 <=1 
C1303: x50+x57-y50_57 <=1 
C1304: x50+x58-y50_58 <=1 
C1305: x50+x59-y50_59 <=1 
C1306: x50+x60-y50_60 <=1 
C1307: x50+x61-y50_61 <=1 
C1308: x50+x63-y50_63 <=1 
C1309: x50+x66 <=1 
C1310: x50+x67 <=1 
C1311: x51+x52-y51_52 <=1 
C1312: x51+x56 <=1 
C1313: x51+x57-y51_57 <=1 
C1314: x51+x59 <=1 
C1315: x51+x60 <=1 
C1316: x51+x62 <=1 
C1317: x51+x63-y51_63 <=1 
C1318: x51+x64 <=1 
C1319: x51+x67 <=1 
C1320: x52+x53-y52_53 <=1 
C1321: x52+x57 <=1 
C1322: x52+x58 <=1 
C1323: x52+x59-y52_59 <=1 
C1324: x52+x62-y52_62 <=1 
C1325: x52+x63-y52_63 <=1 
C1326: x52+x64-y52_64 <=1 
C1327: x52+x67 <=1 
C1328: x53+x54-y53_54 <=1 
C1329: x53+x58 <=1 
C1330: x53+x59 <=1 
C1331: x53+x60-y53_60 <=1 
C1332: x53+x62-y53_62 <=1 
C1333: x53+x64-y53_64 <=1 
C1334: x53+x65 <=1 
C1335: x53+x66-y53_66 <=1 
C1336: x54+x56-y54_56 <=1 
C1337: x54+x58-y54_58 <=1 
C1338: x54+x59-y54_59 <=1 
C1339: x54+x61-y54_61 <=1 
C1340: x54+x62 <=1 
C1341: x54+x63 <=1 
C1342: x55+x56 <=1 
C1343: x55+x58-y55_58 <=1 
C1344: x55+x62 <=1 
C1345: x55+x63 <=1 
C1346: x55+x65 <=1 
C1347: x55+x67-y55_67 <=1 
C1348: x56+x59-y56_59 <=1 
C1349: x56+x60 <=1 
C1350: x56+x61-y56_61 <=1 
C1351: x56+x63-y56_63 <=1 
C1352: x56+x65-y56_65 <=1 
C1353: x56+x67-y56_67 <=1 
C1354: x57+x59 <=1 
C1355: x57+x60 <=1 
C1356: x57+x61 <=1 
C1357: x57+x62 <=1 
C1358: x57+x65-y57_65 <=1 
C1359: x57+x66-y57_66 <=1 
C1360: x57+x67 <=1 
C1361: x58+x61 <=1 
C1362: x58+x64-y58_64 <=1 
C1363: x58+x66-y58_66 <=1 
C1364: x58+x67-y58_67 <=1 
C1365: x59+x60-y59_60 <=1 
C1366: x59+x61 <=1 
C1367: x59+x62 <=1 
C1368: x59+x63-y59_63 <=1 
C1369: x59+x65-y59_65 <=1 
C1370: x59+x66 <=1 
C1371: x60+x61-y60_61 <=1 
C1372: x60+x62 <=1 
C1373: x60+x63-y60_63 <=1 
C1374: x60+x64 <=1 
C1375: x60+x66-y60_66 <=1 
C1376: x60+x67-y60_67 <=1 
C1377: x61+x63-y61_63 <=1 
C1378: x61+x65-y61_65 <=1 
C1379: x62+x63-y62_63 <=1 
C1380: x62+x65-y62_65 <=1 
C1381: x62+x66 <=1 
C1382: x63+x64-y63_64 <=1 
C1383: x63+x66 <=1 
C1384: x63+x67 <=1 
C1385: x64+x66 <=1 
C1386: x65+x66 <=1 
C1387: x65+x67-y65_67 <=1 
C1388: x66+x67 <=1 

binary
x0
x1
x2
x3
x4
x5
x6
x7
x8
x9
x10
x11
x12
x13
x14
x15
x16
x17
x18
x19
x20
x21
x22
x23
x24
x25
x26
x27
x28
x29
x30
x31
x32
x33
x34
x35
x36
x37
x38
x39
x40
x41
x42
x43
x44
x45
x46
x47
x48
x49
x50
x51
x52
x53
x54
x55
x56
x57
x58
x59
x60
x61
x62
x63
x64
x65
x66
x67
