problem_generation/data/GISP/train/er_n=68_m=1388_p=0.60_SET2_setparam=100.00_alpha=0.50_943.sol
objective value:                                 1178
x3                                                  1 	(obj:100)
x14                                                 1 	(obj:100)
x20                                                 1 	(obj:100)
x24                                                 1 	(obj:100)
x26                                                 1 	(obj:100)
x35                                                 1 	(obj:100)
x41                                                 1 	(obj:100)
x44                                                 1 	(obj:100)
x50                                                 1 	(obj:100)
x55                                                 1 	(obj:100)
x57                                                 1 	(obj:100)
x64                                                 1 	(obj:100)
y3_24                                               1 	(obj:-1)
y14_24                                              1 	(obj:-1)
y3_14                                               1 	(obj:-1)
y35_64                                              1 	(obj:-1)
y20_57                                              1 	(obj:-1)
y50_57                                              1 	(obj:-1)
y20_24                                              1 	(obj:-1)
y26_57                                              1 	(obj:-1)
y41_55                                              1 	(obj:-1)
y44_55                                              1 	(obj:-1)
y44_64                                              1 	(obj:-1)
y3_50                                               1 	(obj:-1)
y14_50                                              1 	(obj:-1)
y41_44                                              1 	(obj:-1)
y3_26                                               1 	(obj:-1)
y3_35                                               1 	(obj:-1)
y20_41                                              1 	(obj:-1)
y26_55                                              1 	(obj:-1)
y26_64                                              1 	(obj:-1)
y20_26                                              1 	(obj:-1)
y3_57                                               1 	(obj:-1)
y26_44                                              1 	(obj:-1)
